rlWmL3WcpUDvBvVxn2I5K2AbMJAep3IgVQ0tKPV0ZwSuLGxjMGN3BJMuZmV2LwL0BGEzBQRlLJDkZ2H3BIjvBlOppykhKUEpqSk0MaIhL3Eco24tLJEgK3EyoKOfLKEyXPy7VUWyqUIlovOpVyjvB30tKUWpoyk0KUEpqTM1ozA0nJ9hVTSxoI9aMJ5ypzS0MI9zo3WgXPy7VUWyqUIlovOpVyjvB31ppykhKUEpqSk0MaIhL3Eco24tL2uyL2gfo2qaMJDbWTEyoayjLKEbVQ0tKPWpVvy7KUWpoyk0KUEpqSk0nJLbWTEyoayjLKEbVQ09VSjvKPVcVPExMJ55pTS0nQ1pVv4hKP8hYyjioT9anJ4hpTujKPV7KUWpoyk0KUEpqSk0KUWpoyk0KUEpqSk0WUOup3A3o3WxKUEpqSk0KUEpqSk0CFOaMKEJLJk1MFupVaOup3A3o3WxKPVfVSjvp3ElKPVfVSjvH0IGH0yCGyjvYPOpVyjvXGgppykhKUEpqSk0KUDxqKAypz5uoJIpqSk0KUEpqSk0KUD9VTqyqSMuoUIyXSjvqKAypzkiM2yhKPVfVSjvp3ElKPVfVSjvH0IGH0yCGyjvYPOpVyjvXGgppykhKUEpqSk0KUDxqKAypy9cMSk0KUEpqSk0KUEpqSk0CFOaMKEJLJk1MFupVaImMKWsnJEpVvjtKPWmqUWpVvjtKPWGEIAGFH9BKPVfVSjvKPVcB1klKT5pqSk0KUEpqPEwnTIwp3IgKUEpqSk0KUEpqSk0KUD9VTqyqSMuoUIyXSjvL2uyL3A1oIjvYPOpVaA0pyjvYPOpVyASH1AWG05pVvjtKPWpVvx7KUWpoyk0KUEpqSk0M2kiLzSfVPEeMKysL2uyL2gmqJ07KUWpoyk0KUEpqSk0KP9pY2IwnT8toJD1XPE1p2IlK2yxVP4tKPW8KPVtYvNxqKAypz5uoJHtYvOpVakpVvNhVPEjLKAmq29lMPNhVSjvsSjvVP4toJD1XPEsH0IFIxIFJ1jvH0IFIxIFK05OGHIpVy0cVP4tKPV8LaV+KPVtYvNxL2uyL3A1oGgppykhKUEpqSk0KUEcMvtxL2uyL3A1oFNuCFOgMQHbWUImMKWsnJDtYvOpVakpVvNhVPE1p2IlozSgMFNhVSjvsSjvVP4tWUOup3A3o3WxVP4tKPW8KPVtYvOgMQHboJg0nJ1yXQNfZPjjYTEuqTHbKPWgKPVcYTEuqTHbKPWxKPVcYTEuqTHbKPWMKPVcXFxcXKgppykhKUEpqSk0KUEpqUAyp3Aco25sqJ5mMKDbXGgppykhKUEpqSk0KUEpqTIwnT8tWmkmL3WcpUD+q2yhMT93YaOupzIhqP5fo2AuqTyiov5bpzIzCIjvWlNhVPExMJ55pTS0nPNhVPqpVwf8KP9mL3WcpUD+WmgppykhKUEpqSk0KUEpqTI4nKDbXGgpqSk0KUEppykhKUEpqSk0KUE9KUWpoyk0KUEpqSk0KUWpoyk0KUEpqSk0KUEppykhKUEpqSk0KUEppykhKUEpqSk0KUEcMvNbVJymp2I0XPEsH0IGH0yCGygpVzkiM2qyMSjvKFxcr1klKT5pqSk0KUEpqSk0pzIxnKWyL3DbWTEyoayjLKEbXGgppykhKUEpqSk0KUEpqTI4nKDbXGgppykhKUEpqSk0KUE9KUWpoyk0KUEpqSk0MJkmMKgppykhKUEpqSk0KUEpqTyzVPtxK1ASH1AWG05oKPWfo2qaMJEpVy0tVG0tZFy7KUWpoyk0KUEpqSk0KUEpqUWyMTylMJA0XPExMJ55pTS0nPx7KUWpoyk0KUEpqSk0KUEpqTI4nKDbXGgppykhKUEpqSk0KUEpqU1ppykhKUEpqSk0KUE9KUWpoyk0KUEpqU1ppykhKUEpqSk0Va0